Minimize
  obj: x0 + x1 + x2 + x3 + x4

Subject To
  c0: x0 + x2 + x4 = 30
  c1: x4 = 4
  c2: x0 + x1 + x2 + x3 + x4 = 53
  c3: x0 + x1 + x3 = 29
  c4: x1 + x2 = 33
  c5: x0 + x1 + x2 + x3 + x4 = 53
  c6: x1 + x4 = 17

Bounds
  x0 >= 0
  x1 >= 0
  x2 >= 0
  x3 >= 0
  x4 >= 0

Generals
  x0 x1 x2 x3 x4

End
